(set-logic HORN)
(set-info :source |
  Benchmark: test_safe_2019/mochi/repeat.ml
  Generated by MoCHi
|)
(set-info :status unknown)
(declare-fun |fail_11[0:0]| ( Int) Bool)
(declare-fun |repeat[0:3][0:0]| ( Int  Int  Int) Bool)
(declare-fun |repeat[0:2]| ( Int  Int) Bool)
(assert (not (exists ((x0 Int)) (|fail_11[0:0]| x0))))
(assert (forall ((x0 Int)(x2 Int)(x1 Int)) (=> (and (|repeat[0:3][0:0]| x1 0 x2) (not (= x2 x1))) (|fail_11[0:0]| x0))))
(assert (forall ((x1 Int)(x2 Int)(x0 Int)) (=> (and (|repeat[0:2]| x1 x2) (and (= x1 0) (= x0 x2))) (|repeat[0:3][0:0]| x1 x2 x0))))
(assert (forall ((x1 Int)(x0 Int)) (=> (= x0 0) (|repeat[0:2]| x1 x0))))
(check-sat)
(get-model)
(exit)
